
%    +-----------+
% 8  | | | | | | |
% 7  | | | | | | |
% 6  | | | | | | |
% 5  | | | | | | |
% 4  | |4| | | | |
% 3  |1|1| | |3| |
% 2  |1|1|2| | | |
% 1  | | | | | | |
%    +-----------+
n=6;
m=8;
h=2;
%maxT=15;
boxNumber=4;
boxSideLen = [2, 1, 1, 1];
boxStartX  = [1, 3, 5, 2];
boxStartY  = [2, 2, 3, 4];
